BAYES
700
2 2 2 2 2 2 2 2 2 2 2 2 2 2 2 2 2 2 2 2 2 2 2 2 2 2 2 2 2 2 2 2 2 2 2 2 2 2 2 2 2 2 2 2 2 2 2 2 2 2 2 2 2 2 2 2 2 2 2 2 2 2 2 2 2 2 2 2 2 2 2 2 2 2 2 2 2 2 2 2 2 2 2 2 2 2 2 2 2 2 2 2 2 2 2 2 2 2 2 2 2 2 2 2 2 2 2 2 2 2 2 2 2 2 2 2 2 2 2 2 2 2 2 2 2 2 2 2 2 2 2 2 2 2 2 2 2 2 2 2 2 2 2 2 2 2 2 2 2 2 2 2 2 2 2 2 2 2 2 2 2 2 2 2 2 2 2 2 2 2 2 2 2 2 2 2 2 2 2 2 2 2 2 2 2 2 2 2 2 2 2 2 2 2 2 2 2 2 2 2 2 2 2 2 2 2 2 2 2 2 2 2 2 2 2 2 2 2 2 2 2 2 2 2 2 2 2 2 2 2 2 2 2 2 2 2 2 2 2 2 2 2 2 2 2 2 2 2 2 2 2 2 2 2 2 2 2 2 2 2 2 2 2 2 2 2 2 2 2 2 2 2 2 2 2 2 2 2 2 2 2 2 2 2 2 2 2 2 2 2 2 2 2 2 2 2 2 2 2 2 2 2 2 2 2 2 2 2 2 2 2 2 2 2 2 2 2 2 2 2 2 2 2 2 2 2 2 2 2 2 2 2 2 2 2 2 2 2 2 2 2 2 2 2 2 2 2 2 2 2 2 2 2 2 2 2 2 2 2 2 2 2 2 2 2 2 2 2 2 2 2 2 2 2 2 2 2 2 2 2 2 2 2 2 2 2 2 2 2 2 2 2 2 2 2 2 2 2 2 2 2 2 2 2 2 2 2 2 2 2 2 2 2 2 2 2 2 2 2 2 2 2 2 2 2 2 2 2 2 2 2 2 2 2 2 2 2 2 2 2 2 2 2 2 2 2 2 2 2 2 2 2 2 2 2 2 2 2 2 2 2 2 2 2 2 2 2 2 2 2 2 2 2 2 2 2 2 2 2 2 2 2 2 2 2 2 2 2 2 2 2 2 2 2 2 2 2 2 2 2 2 2 2 2 2 2 2 2 2 2 2 2 2 2 2 2 2 2 2 2 2 2 2 2 2 2 2 2 2 2 2 2 2 2 2 2 2 2 2 2 2 2 2 2 2 2 2 2 2 2 2 2 2 2 2 2 2 2 2 2 2 2 2 2 2 2 2 2 2 2 2 2 2 2 2 2 2 2 2 2 2 2 2 2 2 2 2 2 2 2 2 2 2 2 2 2 2 2 2 2 2 2 2 2 2 2 2 2 2 2 2 2 2 2 2 2 2 2 2 2 2 2 2 2 2 2 2 2 2 2 2 2 2 2 2 2 2 2 2 2 2 2 2 2 2 2 2 2 2 2 2 2 2 2 2 2 2 2 2 2 2 2 2 2 2 2 2 2 2 2 2 2 2 2 2 2 2 2 2 2 2 2 2 2 2 2 2 2 2 2 2 2 2 2 2 2 2 2 2 2
700
3 56 11 57
3 234 32 252
2 123 124
2 679 680
3 266 247 267
3 641 664 665
3 53 35 59
3 611 32 629
2 17 19
2 394 395
3 170 179 180
2 689 690
3 78 9 87
3 150 30 152
3 459 11 463
3 591 9 594
1 78
2 595 596
3 352 26 354
3 534 503 557
3 348 30 355
3 359 25 362
3 174 19 178
3 379 28 383
3 222 605 606
3 435 465 466
3 487 479 488
3 218 18 225
3 269 32 271
2 450 451
3 435 35 442
3 260 267 268
3 352 18 353
3 570 530 571
3 215 470 471
3 2 19 21
2 584 585
2 416 417
2 378 379
2 606 607
3 352 488 489
2 466 467
3 431 437 438
2 669 670
2 553 554
3 395 384 398
2 31 35
2 203 204
2 237 238
2 27 30
3 146 18 163
3 290 18 292
3 388 423 424
3 516 500 517
3 547 520 548
3 550 30 556
3 543 571 572
3 78 35 81
1 357
3 229 25 231
3 322 344 345
3 96 51 97
2 173 174
3 111 122 123
2 4 5
3 543 19 545
3 303 293 304
3 666 28 672
3 312 25 314
3 256 9 294
3 648 626 649
2 471 472
3 483 513 514
2 245 246
3 377 35 402
2 632 633
3 0 28 29
3 421 400 422
3 72 144 145
3 409 415 416
3 309 288 310
3 661 19 683
3 477 496 497
2 430 431
2 695 696
3 312 30 313
3 53 589 590
3 301 28 309
2 376 377
3 427 9 457
2 583 584
3 102 148 149
3 108 93 110
3 622 26 628
3 515 511 523
3 381 372 382
3 586 226 610
3 519 526 527
2 523 524
3 330 9 344
3 29 38 39
1 37
3 90 35 94
3 154 168 169
2 538 539
2 255 256
2 461 462
3 681 647 682
3 674 688 689
1 0
3 406 396 407
3 150 156 157
3 463 453 464
3 229 30 230
3 72 26 74
3 13 14 15
3 227 25 233
3 146 142 153
3 390 457 458
3 211 360 361
3 227 30 232
3 290 26 291
3 218 26 219
3 116 19 143
3 686 682 697
3 637 25 639
3 539 561 562
3 607 635 636
3 3 32 34
2 333 334
1 215
3 576 11 580
2 438 439
3 68 114 115
3 490 18 492
3 634 628 635
3 502 35 510
3 498 25 500
3 655 668 669
3 597 614 615
3 524 32 531
1 469
3 222 30 224
2 346 347
3 348 475 476
3 68 32 75
3 326 271 327
3 121 35 127
3 593 604 605
2 369 370
3 327 280 328
3 598 213 599
3 633 35 658
3 435 9 441
3 490 26 491
3 645 693 694
3 47 26 49
2 673 674
2 514 515
3 436 418 437
3 43 252 253
3 306 340 341
3 370 18 372
2 300 301
3 392 368 393
3 143 105 144
3 663 638 664
3 312 332 333
3 264 28 272
2 636 637
3 367 18 373
2 533 534
3 56 594 595
2 345 346
3 37 236 237
3 264 35 266
3 65 97 98
3 274 239 275
2 549 550
2 573 574
3 193 171 194
3 21 349 350
3 88 35 113
2 200 201
2 241 242
3 586 19 598
3 63 106 107
3 611 19 619
2 493 494
3 633 9 651
3 519 18 521
2 670 671
3 641 9 650
3 187 177 202
3 507 25 509
3 498 505 506
3 469 356 493
3 320 11 326
2 660 661
1 60
3 464 433 465
3 242 32 249
3 666 677 678
3 417 18 419
3 399 25 401
3 187 9 198
3 405 32 423
3 60 26 62
2 8 11
3 90 119 120
2 101 102
3 405 382 412
2 685 686
2 153 154
3 672 692 693
3 88 9 106
3 246 26 248
2 644 645
2 590 591
3 447 443 454
3 0 9 10
1 1
3 661 649 673
3 666 9 668
3 188 172 189
3 14 7 31
3 229 275 276
3 84 32 86
3 166 32 183
3 238 18 240
3 630 224 631
3 16 23 24
3 498 30 499
3 111 11 112
3 580 544 581
1 2
3 116 95 128
3 545 551 552
3 357 30 374
3 601 26 604
3 118 100 119
3 90 9 93
2 554 555
3 53 28 58
3 625 26 627
3 290 315 316
2 557 558
3 125 183 184
2 98 99
2 278 279
3 413 32 420
1 234
3 222 25 223
3 494 9 532
3 472 11 473
3 558 546 575
3 250 230 251
3 444 410 445
2 128 129
2 186 187
3 504 491 505
2 110 111
2 145 146
3 238 26 239
3 129 19 141
3 4 5 6
3 507 548 549
3 617 608 618
3 59 225 226
3 253 232 254
3 525 509 526
3 367 363 369
3 524 19 525
3 23 7 27
3 540 521 541
2 652 653
3 154 18 161
2 15 16
3 301 35 303
3 141 103 142
3 63 11 64
2 115 116
3 227 39 228
3 166 162 173
3 102 30 104
2 566 567
3 564 529 565
3 72 18 73
3 109 117 118
3 12 587 588
1 53
1 348
3 287 18 293
3 379 425 426
3 129 164 165
3 53 9 54
3 535 522 536
3 515 32 522
3 91 74 92
3 588 214 589
2 458 459
2 268 269
2 698 699
3 391 420 421
3 301 328 329
3 502 28 504
3 99 25 105
2 694 695
3 264 299 300
3 402 373 403
3 469 35 480
3 243 231 244
3 170 18 172
3 76 67 77
3 563 35 570
3 447 32 453
3 176 159 177
3 99 92 101
3 502 9 503
1 63
3 209 385 386
3 136 161 162
3 306 32 308
3 417 26 418
1 3
2 697 698
3 205 87 208
2 8 9
3 212 30 214
2 542 543
2 624 625
3 641 35 648
2 181 182
2 17 18
3 428 411 429
3 534 11 535
2 89 90
3 536 499 537
3 435 28 436
3 65 30 67
3 113 52 114
3 330 35 339
3 637 30 638
2 259 260
3 140 175 176
3 287 282 289
3 633 616 640
2 690 691
3 379 35 381
3 134 9 137
2 6 7
2 412 413
3 42 10 44
3 510 492 511
2 208 209
3 377 28 392
2 654 655
3 507 30 508
3 563 582 583
3 256 28 274
3 301 9 302
2 408 409
3 686 26 692
2 133 134
3 84 403 404
3 269 304 305
3 209 11 210
2 351 352
1 227
3 287 26 288
3 560 508 561
3 387 380 389
3 417 449 450
3 377 9 385
3 424 397 425
3 45 294 295
3 81 48 82
1 50
2 221 222
3 494 35 512
3 47 365 366
2 149 150
2 506 507
3 234 41 241
2 289 290
3 121 28 126
3 108 11 109
2 575 576
3 399 429 430
3 134 185 186
3 477 25 479
3 78 375 376
2 180 181
3 272 248 273
3 483 19 487
1 218
3 613 19 617
3 6 7 13
3 613 32 614
2 389 390
2 476 477
2 454 455
3 37 18 40
3 348 25 349
3 146 26 147
3 210 86 211
3 116 32 117
2 44 45
2 640 641
3 112 130 131
3 502 537 538
3 539 28 547
3 615 609 616
3 167 151 168
3 296 265 319
3 320 302 321
3 269 19 270
3 637 643 644
3 676 646 677
3 601 18 602
3 307 314 315
3 121 132 133
3 641 28 642
2 22 23
2 482 483
3 158 194 195
3 409 26 411
3 359 393 394
3 528 552 553
3 94 73 95
2 577 578
2 337 338
3 78 28 79
3 370 407 408
2 120 121
2 202 203
2 316 317
3 528 18 530
2 83 84
3 480 61 481
2 578 579
3 559 531 560
3 431 30 433
3 473 484 485
3 234 19 235
2 24 26
3 37 26 38
3 674 19 681
3 235 233 236
3 399 30 400
3 2 481 482
2 600 601
3 88 28 96
3 474 62 475
3 409 18 410
2 169 170
3 519 26 520
2 460 461
3 257 240 258
3 7 5 8
3 42 11 43
3 494 486 501
3 260 19 262
3 1 11 12
3 1 54 55
2 191 192
2 665 666
3 47 18 48
3 667 687 688
3 515 19 516
2 497 498
3 607 30 609
3 625 18 626
1 47
2 678 679
2 195 196
2 199 200
2 366 367
3 469 28 474
2 336 337
2 572 573
2 263 264
3 79 49 80
3 576 569 577
3 485 478 486
3 539 9 546
3 264 9 265
3 139 11 140
3 633 28 634
3 367 26 368
3 495 354 496
3 246 285 286
3 357 25 364
3 127 163 164
3 65 25 66
3 543 32 544
3 60 350 351
2 426 427
1 88
2 71 72
3 174 189 190
3 0 254 255
2 562 563
2 305 306
3 279 310 311
3 277 25 284
3 601 620 621
3 270 281 282
3 448 432 449
3 0 35 36
3 135 155 156
3 170 26 171
3 50 70 71
3 150 25 151
3 90 28 91
3 260 32 261
2 621 622
3 592 602 603
1 68
3 611 603 612
3 405 19 406
3 596 651 652
3 607 25 608
3 550 565 566
3 15 16 22
3 134 35 136
3 661 32 662
3 242 258 259
3 124 11 125
3 550 25 551
3 490 517 518
2 107 108
3 330 325 336
3 524 541 542
3 459 441 460
2 321 322
3 395 30 397
3 298 283 299
3 581 556 582
3 469 9 470
3 528 26 529
2 386 387
1 4
2 286 287
3 591 28 593
2 138 139
2 165 166
2 567 568
3 686 18 687
3 134 28 135
3 427 35 444
3 323 308 324
2 341 342
2 455 456
3 658 623 659
3 296 11 297
3 379 9 380
3 387 11 388
2 24 25
3 656 675 676
3 427 422 434
3 666 35 667
3 591 631 632
3 217 355 356
3 306 19 307
3 586 32 587
2 527 528
2 334 335
2 451 452
3 370 26 371
3 238 244 245
3 50 18 52
2 329 330
3 558 11 559
3 357 80 358
3 50 26 51
3 674 32 675
3 613 659 660
3 431 25 432
3 16 14 17
3 64 75 76
3 60 18 61
3 124 137 138
3 121 9 122
1 42
3 218 599 600
3 215 11 216
3 297 261 298
2 501 502
3 279 25 281
3 324 313 325
2 612 613
2 196 197
2 342 343
2 439 440
3 494 28 495
3 46 249 250
2 157 158
3 166 19 167
3 279 30 280
3 69 66 70
2 31 32
2 276 277
3 377 361 378
3 539 35 540
3 442 419 443
3 322 11 323
2 190 191
2 319 320
3 477 30 478
2 13 14
3 447 19 448
3 246 18 247
3 339 292 340
3 622 618 624
2 467 468
3 483 32 484
3 99 30 100
3 256 251 263
3 591 35 592
3 212 25 213
2 228 229
2 311 312
3 657 662 663
2 317 318
3 653 11 657
3 563 9 569
2 398 399
3 331 291 332
3 102 25 103
3 622 18 623
3 413 445 446
3 330 28 331
3 184 152 185
2 295 296
1 586
3 472 532 533
3 20 364 365
3 645 25 647
2 358 359
3 187 28 193
3 277 30 283
1 212
3 212 220 221
2 404 405
3 84 19 85
3 645 30 646
3 174 32 175
3 129 32 130
2 55 56
2 434 435
3 512 353 513
3 3 19 20
3 88 77 89
3 206 34 207
3 139 198 199
3 619 223 620
3 596 11 597
3 131 104 132
3 2 32 33
3 85 362 363
3 683 639 684
2 27 28
3 413 19 414
2 489 490
3 563 28 564
3 207 374 375
3 178 160 179
2 446 447
3 642 627 643
3 216 33 217
3 655 11 656
3 68 19 69
3 395 25 396
3 383 371 384
3 390 11 391
3 359 30 360
3 57 629 630
3 653 650 654
3 277 273 278
3 36 40 41
3 414 401 415
3 187 35 188
3 158 25 160
3 58 219 220
1 65
1 205
3 154 26 155
3 625 684 685
2 518 519
3 262 284 285
3 3 82 83
3 45 11 46
2 610 611
3 256 35 257
3 205 11 206
3 158 30 159
3 126 147 148
3 427 28 428
3 242 19 243

8
1.0 0.0 1.0 0.0 0.0 1.0 1.0 0.0

8
1.0 0.0 1.0 0.0 0.0 1.0 1.0 0.0

4
1.0 0.0 0.0 1.0

4
1.0 0.0 0.0 1.0

8
1.0 0.0 0.0 1.0 0.0 1.0 0.0 1.0

8
1.0 0.0 0.0 1.0 0.0 1.0 0.0 1.0

8
1.0 0.0 1.0 0.0 0.0 1.0 1.0 0.0

8
1.0 0.0 1.0 0.0 0.0 1.0 1.0 0.0

4
1.0 0.0 0.0 1.0

4
1.0 0.0 0.0 1.0

8
1.0 0.0 0.0 1.0 0.0 1.0 0.0 1.0

4
1.0 0.0 0.0 1.0

8
1.0 0.0 1.0 0.0 0.0 1.0 1.0 0.0

8
1.0 0.0 1.0 0.0 0.0 1.0 1.0 0.0

8
1.0 0.0 1.0 0.0 0.0 1.0 1.0 0.0

8
1.0 0.0 1.0 0.0 0.0 1.0 1.0 0.0

2
0.0 1.0

4
1.0 0.0 0.0 1.0

8
1.0 0.0 1.0 0.0 0.0 1.0 1.0 0.0

8
1.0 0.0 0.0 1.0 0.0 1.0 0.0 1.0

8
1.0 0.0 1.0 0.0 0.0 1.0 1.0 0.0

8
1.0 0.0 1.0 0.0 0.0 1.0 1.0 0.0

8
1.0 0.0 1.0 0.0 0.0 1.0 1.0 0.0

8
1.0 0.0 1.0 0.0 0.0 1.0 1.0 0.0

8
1.0 0.0 0.0 1.0 0.0 1.0 0.0 1.0

8
1.0 0.0 0.0 1.0 0.0 1.0 0.0 1.0

8
1.0 0.0 0.0 1.0 0.0 1.0 0.0 1.0

8
1.0 0.0 1.0 0.0 0.0 1.0 1.0 0.0

8
1.0 0.0 1.0 0.0 0.0 1.0 1.0 0.0

4
1.0 0.0 0.0 1.0

8
1.0 0.0 1.0 0.0 0.0 1.0 1.0 0.0

8
1.0 0.0 0.0 1.0 0.0 1.0 0.0 1.0

8
1.0 0.0 1.0 0.0 0.0 1.0 1.0 0.0

8
1.0 0.0 0.0 1.0 0.0 1.0 0.0 1.0

8
1.0 0.0 0.0 1.0 0.0 1.0 0.0 1.0

8
1.0 0.0 1.0 0.0 0.0 1.0 1.0 0.0

4
1.0 0.0 0.0 1.0

4
1.0 0.0 0.0 1.0

4
1.0 0.0 0.0 1.0

4
1.0 0.0 0.0 1.0

8
1.0 0.0 0.0 1.0 0.0 1.0 0.0 1.0

4
1.0 0.0 0.0 1.0

8
1.0 0.0 0.0 1.0 0.0 1.0 0.0 1.0

4
1.0 0.0 0.0 1.0

4
1.0 0.0 0.0 1.0

8
1.0 0.0 0.0 1.0 0.0 1.0 0.0 1.0

4
1.0 0.0 0.0 1.0

4
1.0 0.0 0.0 1.0

4
1.0 0.0 0.0 1.0

4
1.0 0.0 0.0 1.0

8
1.0 0.0 1.0 0.0 0.0 1.0 1.0 0.0

8
1.0 0.0 1.0 0.0 0.0 1.0 1.0 0.0

8
1.0 0.0 0.0 1.0 0.0 1.0 0.0 1.0

8
1.0 0.0 0.0 1.0 0.0 1.0 0.0 1.0

8
1.0 0.0 0.0 1.0 0.0 1.0 0.0 1.0

8
1.0 0.0 1.0 0.0 0.0 1.0 1.0 0.0

8
1.0 0.0 0.0 1.0 0.0 1.0 0.0 1.0

8
1.0 0.0 1.0 0.0 0.0 1.0 1.0 0.0

2
1.0 0.0

8
1.0 0.0 1.0 0.0 0.0 1.0 1.0 0.0

8
1.0 0.0 0.0 1.0 0.0 1.0 0.0 1.0

8
1.0 0.0 0.0 1.0 0.0 1.0 0.0 1.0

4
1.0 0.0 0.0 1.0

8
1.0 0.0 0.0 1.0 0.0 1.0 0.0 1.0

4
0.8 0.2 1.0 0.0

8
1.0 0.0 1.0 0.0 0.0 1.0 1.0 0.0

8
1.0 0.0 0.0 1.0 0.0 1.0 0.0 1.0

8
1.0 0.0 1.0 0.0 0.0 1.0 1.0 0.0

8
1.0 0.0 1.0 0.0 0.0 1.0 1.0 0.0

8
1.0 0.0 1.0 0.0 0.0 1.0 1.0 0.0

8
1.0 0.0 0.0 1.0 0.0 1.0 0.0 1.0

4
1.0 0.0 0.0 1.0

8
1.0 0.0 0.0 1.0 0.0 1.0 0.0 1.0

4
1.0 0.0 0.0 1.0

8
1.0 0.0 1.0 0.0 0.0 1.0 1.0 0.0

4
1.0 0.0 0.0 1.0

8
1.0 0.0 1.0 0.0 0.0 1.0 1.0 0.0

8
1.0 0.0 0.0 1.0 0.0 1.0 0.0 1.0

8
1.0 0.0 0.0 1.0 0.0 1.0 0.0 1.0

8
1.0 0.0 0.0 1.0 0.0 1.0 0.0 1.0

8
1.0 0.0 0.0 1.0 0.0 1.0 0.0 1.0

8
1.0 0.0 1.0 0.0 0.0 1.0 1.0 0.0

8
1.0 0.0 0.0 1.0 0.0 1.0 0.0 1.0

4
1.0 0.0 0.0 1.0

4
1.0 0.0 0.0 1.0

8
1.0 0.0 1.0 0.0 0.0 1.0 1.0 0.0

8
1.0 0.0 0.0 1.0 0.0 1.0 0.0 1.0

8
1.0 0.0 1.0 0.0 0.0 1.0 1.0 0.0

4
1.0 0.0 0.0 1.0

8
1.0 0.0 1.0 0.0 0.0 1.0 1.0 0.0

4
1.0 0.0 0.0 1.0

8
1.0 0.0 0.0 1.0 0.0 1.0 0.0 1.0

8
1.0 0.0 0.0 1.0 0.0 1.0 0.0 1.0

8
1.0 0.0 1.0 0.0 0.0 1.0 1.0 0.0

8
1.0 0.0 0.0 1.0 0.0 1.0 0.0 1.0

8
1.0 0.0 0.0 1.0 0.0 1.0 0.0 1.0

8
1.0 0.0 0.0 1.0 0.0 1.0 0.0 1.0

8
1.0 0.0 0.0 1.0 0.0 1.0 0.0 1.0

4
1.0 0.0 0.0 1.0

8
1.0 0.0 1.0 0.0 0.0 1.0 1.0 0.0

8
1.0 0.0 0.0 1.0 0.0 1.0 0.0 1.0

2
0.0 1.0

8
1.0 0.0 1.0 0.0 0.0 1.0 1.0 0.0

8
1.0 0.0 0.0 1.0 0.0 1.0 0.0 1.0

4
1.0 0.0 0.0 1.0

4
1.0 0.0 0.0 1.0

4
1.0 0.0 0.0 1.0

8
1.0 0.0 0.0 1.0 0.0 1.0 0.0 1.0

8
1.0 0.0 0.0 1.0 0.0 1.0 0.0 1.0

2
1.0 0.0

8
1.0 0.0 0.0 1.0 0.0 1.0 0.0 1.0

8
1.0 0.0 0.0 1.0 0.0 1.0 0.0 1.0

8
1.0 0.0 0.0 1.0 0.0 1.0 0.0 1.0

8
1.0 0.0 1.0 0.0 0.0 1.0 1.0 0.0

8
1.0 0.0 1.0 0.0 0.0 1.0 1.0 0.0

8
1.0 0.0 0.0 1.0 0.0 1.0 0.0 1.0

8
1.0 0.0 1.0 0.0 0.0 1.0 1.0 0.0

8
1.0 0.0 0.0 1.0 0.0 1.0 0.0 1.0

8
1.0 0.0 0.0 1.0 0.0 1.0 0.0 1.0

8
1.0 0.0 0.0 1.0 0.0 1.0 0.0 1.0

8
1.0 0.0 1.0 0.0 0.0 1.0 1.0 0.0

8
1.0 0.0 1.0 0.0 0.0 1.0 1.0 0.0

8
1.0 0.0 1.0 0.0 0.0 1.0 1.0 0.0

8
1.0 0.0 1.0 0.0 0.0 1.0 1.0 0.0

8
1.0 0.0 0.0 1.0 0.0 1.0 0.0 1.0

8
1.0 0.0 1.0 0.0 0.0 1.0 1.0 0.0

8
1.0 0.0 0.0 1.0 0.0 1.0 0.0 1.0

8
1.0 0.0 0.0 1.0 0.0 1.0 0.0 1.0

8
1.0 0.0 1.0 0.0 0.0 1.0 1.0 0.0

4
1.0 0.0 0.0 1.0

2
1.0 0.0

8
1.0 0.0 1.0 0.0 0.0 1.0 1.0 0.0

4
1.0 0.0 0.0 1.0

8
1.0 0.0 0.0 1.0 0.0 1.0 0.0 1.0

8
1.0 0.0 1.0 0.0 0.0 1.0 1.0 0.0

8
1.0 0.0 0.0 1.0 0.0 1.0 0.0 1.0

8
1.0 0.0 1.0 0.0 0.0 1.0 1.0 0.0

8
1.0 0.0 1.0 0.0 0.0 1.0 1.0 0.0

8
1.0 0.0 0.0 1.0 0.0 1.0 0.0 1.0

8
1.0 0.0 0.0 1.0 0.0 1.0 0.0 1.0

8
1.0 0.0 1.0 0.0 0.0 1.0 1.0 0.0

2
1.0 0.0

8
1.0 0.0 1.0 0.0 0.0 1.0 1.0 0.0

4
1.0 0.0 0.0 1.0

8
1.0 0.0 0.0 1.0 0.0 1.0 0.0 1.0

8
1.0 0.0 1.0 0.0 0.0 1.0 1.0 0.0

8
1.0 0.0 0.0 1.0 0.0 1.0 0.0 1.0

8
1.0 0.0 1.0 0.0 0.0 1.0 1.0 0.0

8
1.0 0.0 0.0 1.0 0.0 1.0 0.0 1.0

4
1.0 0.0 0.0 1.0

8
1.0 0.0 0.0 1.0 0.0 1.0 0.0 1.0

8
1.0 0.0 0.0 1.0 0.0 1.0 0.0 1.0

8
1.0 0.0 1.0 0.0 0.0 1.0 1.0 0.0

8
1.0 0.0 1.0 0.0 0.0 1.0 1.0 0.0

8
1.0 0.0 1.0 0.0 0.0 1.0 1.0 0.0

8
1.0 0.0 0.0 1.0 0.0 1.0 0.0 1.0

8
1.0 0.0 1.0 0.0 0.0 1.0 1.0 0.0

4
1.0 0.0 0.0 1.0

4
1.0 0.0 0.0 1.0

8
1.0 0.0 0.0 1.0 0.0 1.0 0.0 1.0

8
1.0 0.0 0.0 1.0 0.0 1.0 0.0 1.0

8
1.0 0.0 0.0 1.0 0.0 1.0 0.0 1.0

8
1.0 0.0 1.0 0.0 0.0 1.0 1.0 0.0

4
1.0 0.0 0.0 1.0

8
1.0 0.0 0.0 1.0 0.0 1.0 0.0 1.0

8
1.0 0.0 0.0 1.0 0.0 1.0 0.0 1.0

8
1.0 0.0 0.0 1.0 0.0 1.0 0.0 1.0

8
1.0 0.0 0.0 1.0 0.0 1.0 0.0 1.0

8
1.0 0.0 1.0 0.0 0.0 1.0 1.0 0.0

4
1.0 0.0 0.0 1.0

8
1.0 0.0 1.0 0.0 0.0 1.0 1.0 0.0

4
1.0 0.0 0.0 1.0

8
1.0 0.0 0.0 1.0 0.0 1.0 0.0 1.0

4
1.0 0.0 0.0 1.0

8
1.0 0.0 0.0 1.0 0.0 1.0 0.0 1.0

8
1.0 0.0 1.0 0.0 0.0 1.0 1.0 0.0

8
1.0 0.0 0.0 1.0 0.0 1.0 0.0 1.0

8
1.0 0.0 0.0 1.0 0.0 1.0 0.0 1.0

4
1.0 0.0 0.0 1.0

4
1.0 0.0 0.0 1.0

8
1.0 0.0 0.0 1.0 0.0 1.0 0.0 1.0

8
1.0 0.0 0.0 1.0 0.0 1.0 0.0 1.0

8
1.0 0.0 1.0 0.0 0.0 1.0 1.0 0.0

4
1.0 0.0 0.0 1.0

4
1.0 0.0 0.0 1.0

8
1.0 0.0 1.0 0.0 0.0 1.0 1.0 0.0

8
1.0 0.0 0.0 1.0 0.0 1.0 0.0 1.0

8
1.0 0.0 1.0 0.0 0.0 1.0 1.0 0.0

4
1.0 0.0 0.0 1.0

8
1.0 0.0 1.0 0.0 0.0 1.0 1.0 0.0

8
1.0 0.0 1.0 0.0 0.0 1.0 1.0 0.0

4
1.0 0.0 0.0 1.0

8
1.0 0.0 1.0 0.0 0.0 1.0 1.0 0.0

8
1.0 0.0 0.0 1.0 0.0 1.0 0.0 1.0

8
1.0 0.0 1.0 0.0 0.0 1.0 1.0 0.0

8
1.0 0.0 0.0 1.0 0.0 1.0 0.0 1.0

8
1.0 0.0 0.0 1.0 0.0 1.0 0.0 1.0

8
1.0 0.0 1.0 0.0 0.0 1.0 1.0 0.0

4
1.0 0.0 0.0 1.0

2
1.0 0.0

8
1.0 0.0 0.0 1.0 0.0 1.0 0.0 1.0

8
1.0 0.0 1.0 0.0 0.0 1.0 1.0 0.0

8
1.0 0.0 0.0 1.0 0.0 1.0 0.0 1.0

8
1.0 0.0 1.0 0.0 0.0 1.0 1.0 0.0

8
1.0 0.0 1.0 0.0 0.0 1.0 1.0 0.0

8
1.0 0.0 1.0 0.0 0.0 1.0 1.0 0.0

8
1.0 0.0 1.0 0.0 0.0 1.0 1.0 0.0

8
1.0 0.0 1.0 0.0 0.0 1.0 1.0 0.0

4
1.0 0.0 0.0 1.0

8
1.0 0.0 0.0 1.0 0.0 1.0 0.0 1.0

4
1.0 0.0 0.0 1.0

8
1.0 0.0 0.0 1.0 0.0 1.0 0.0 1.0

4
1.0 0.0 0.0 1.0

4
1.0 0.0 0.0 1.0

8
1.0 0.0 0.0 1.0 0.0 1.0 0.0 1.0

8
1.0 0.0 1.0 0.0 0.0 1.0 1.0 0.0

8
1.0 0.0 1.0 0.0 0.0 1.0 1.0 0.0

4
1.0 0.0 0.0 1.0

4
1.0 0.0 0.0 1.0

8
1.0 0.0 0.0 1.0 0.0 1.0 0.0 1.0

8
1.0 0.0 1.0 0.0 0.0 1.0 1.0 0.0

2
0.0 1.0

8
1.0 0.0 0.0 1.0 0.0 1.0 0.0 1.0

8
1.0 0.0 1.0 0.0 0.0 1.0 1.0 0.0

8
1.0 0.0 0.0 1.0 0.0 1.0 0.0 1.0

8
1.0 0.0 0.0 1.0 0.0 1.0 0.0 1.0

8
1.0 0.0 0.0 1.0 0.0 1.0 0.0 1.0

8
1.0 0.0 1.0 0.0 0.0 1.0 1.0 0.0

8
1.0 0.0 1.0 0.0 0.0 1.0 1.0 0.0

8
1.0 0.0 1.0 0.0 0.0 1.0 1.0 0.0

8
1.0 0.0 0.0 1.0 0.0 1.0 0.0 1.0

8
1.0 0.0 0.0 1.0 0.0 1.0 0.0 1.0

8
1.0 0.0 1.0 0.0 0.0 1.0 1.0 0.0

8
1.0 0.0 1.0 0.0 0.0 1.0 1.0 0.0

8
1.0 0.0 0.0 1.0 0.0 1.0 0.0 1.0

2
0.0 1.0

8
1.0 0.0 0.0 1.0 0.0 1.0 0.0 1.0

8
1.0 0.0 0.0 1.0 0.0 1.0 0.0 1.0

8
1.0 0.0 1.0 0.0 0.0 1.0 1.0 0.0

8
1.0 0.0 1.0 0.0 0.0 1.0 1.0 0.0

8
1.0 0.0 0.0 1.0 0.0 1.0 0.0 1.0

8
1.0 0.0 1.0 0.0 0.0 1.0 1.0 0.0

4
1.0 0.0 0.0 1.0

8
1.0 0.0 1.0 0.0 0.0 1.0 1.0 0.0

8
1.0 0.0 1.0 0.0 0.0 1.0 1.0 0.0

8
1.0 0.0 0.0 1.0 0.0 1.0 0.0 1.0

4
1.0 0.0 0.0 1.0

8
1.0 0.0 0.0 1.0 0.0 1.0 0.0 1.0

4
1.0 0.0 0.0 1.0

4
1.0 0.0 0.0 1.0

8
1.0 0.0 1.0 0.0 0.0 1.0 1.0 0.0

2
1.0 0.0

8
1.0 0.0 1.0 0.0 0.0 1.0 1.0 0.0

8
1.0 0.0 1.0 0.0 0.0 1.0 1.0 0.0

8
1.0 0.0 1.0 0.0 0.0 1.0 1.0 0.0

8
1.0 0.0 0.0 1.0 0.0 1.0 0.0 1.0

8
1.0 0.0 0.0 1.0 0.0 1.0 0.0 1.0

8
1.0 0.0 0.0 1.0 0.0 1.0 0.0 1.0

4
1.0 0.0 0.0 1.0

4
1.0 0.0 0.0 1.0

8
1.0 0.0 0.0 1.0 0.0 1.0 0.0 1.0

4
1.0 0.0 0.0 1.0

4
1.0 0.0 0.0 1.0

8
1.0 0.0 1.0 0.0 0.0 1.0 1.0 0.0

8
1.0 0.0 1.0 0.0 0.0 1.0 1.0 0.0

8
1.0 0.0 0.0 1.0 0.0 1.0 0.0 1.0

8
1.0 0.0 0.0 1.0 0.0 1.0 0.0 1.0

8
1.0 0.0 0.0 1.0 0.0 1.0 0.0 1.0

8
1.0 0.0 0.0 1.0 0.0 1.0 0.0 1.0

8
1.0 0.0 0.0 1.0 0.0 1.0 0.0 1.0

8
1.0 0.0 0.0 1.0 0.0 1.0 0.0 1.0

8
1.0 0.0 0.0 1.0 0.0 1.0 0.0 1.0

8
1.0 0.0 1.0 0.0 0.0 1.0 1.0 0.0

8
1.0 0.0 0.0 1.0 0.0 1.0 0.0 1.0

8
1.0 0.0 0.0 1.0 0.0 1.0 0.0 1.0

4
1.0 0.0 0.0 1.0

8
1.0 0.0 1.0 0.0 0.0 1.0 1.0 0.0

4
0.5 0.5 1.0 0.0

8
1.0 0.0 1.0 0.0 0.0 1.0 1.0 0.0

8
1.0 0.0 0.0 1.0 0.0 1.0 0.0 1.0

8
1.0 0.0 1.0 0.0 0.0 1.0 1.0 0.0

4
1.0 0.0 0.0 1.0

8
1.0 0.0 0.0 1.0 0.0 1.0 0.0 1.0

8
1.0 0.0 0.0 1.0 0.0 1.0 0.0 1.0

8
1.0 0.0 1.0 0.0 0.0 1.0 1.0 0.0

4
1.0 0.0 0.0 1.0

8
1.0 0.0 0.0 1.0 0.0 1.0 0.0 1.0

8
1.0 0.0 1.0 0.0 0.0 1.0 1.0 0.0

8
1.0 0.0 0.0 1.0 0.0 1.0 0.0 1.0

8
1.0 0.0 0.0 1.0 0.0 1.0 0.0 1.0

2
1.0 0.0

2
1.0 0.0

8
1.0 0.0 1.0 0.0 0.0 1.0 1.0 0.0

8
1.0 0.0 0.0 1.0 0.0 1.0 0.0 1.0

8
1.0 0.0 0.0 1.0 0.0 1.0 0.0 1.0

8
1.0 0.0 1.0 0.0 0.0 1.0 1.0 0.0

8
1.0 0.0 0.0 1.0 0.0 1.0 0.0 1.0

8
1.0 0.0 1.0 0.0 0.0 1.0 1.0 0.0

8
1.0 0.0 0.0 1.0 0.0 1.0 0.0 1.0

8
1.0 0.0 0.0 1.0 0.0 1.0 0.0 1.0

4
1.0 0.0 0.0 1.0

4
1.0 0.0 0.0 1.0

4
1.0 0.0 0.0 1.0

8
1.0 0.0 0.0 1.0 0.0 1.0 0.0 1.0

8
1.0 0.0 0.0 1.0 0.0 1.0 0.0 1.0

8
1.0 0.0 1.0 0.0 0.0 1.0 1.0 0.0

8
1.0 0.0 1.0 0.0 0.0 1.0 1.0 0.0

4
1.0 0.0 0.0 1.0

8
1.0 0.0 0.0 1.0 0.0 1.0 0.0 1.0

8
1.0 0.0 0.0 1.0 0.0 1.0 0.0 1.0

8
1.0 0.0 1.0 0.0 0.0 1.0 1.0 0.0

8
1.0 0.0 0.0 1.0 0.0 1.0 0.0 1.0

8
1.0 0.0 1.0 0.0 0.0 1.0 1.0 0.0

8
1.0 0.0 0.0 1.0 0.0 1.0 0.0 1.0

8
1.0 0.0 1.0 0.0 0.0 1.0 1.0 0.0

8
1.0 0.0 1.0 0.0 0.0 1.0 1.0 0.0

8
1.0 0.0 0.0 1.0 0.0 1.0 0.0 1.0

8
1.0 0.0 0.0 1.0 0.0 1.0 0.0 1.0

8
1.0 0.0 1.0 0.0 0.0 1.0 1.0 0.0

2
1.0 0.0

8
1.0 0.0 0.0 1.0 0.0 1.0 0.0 1.0

8
1.0 0.0 0.0 1.0 0.0 1.0 0.0 1.0

8
1.0 0.0 1.0 0.0 0.0 1.0 1.0 0.0

8
1.0 0.0 1.0 0.0 0.0 1.0 1.0 0.0

2
1.0 0.0

4
1.0 0.0 0.0 1.0

8
1.0 0.0 0.0 1.0 0.0 1.0 0.0 1.0

4
1.0 0.0 0.0 1.0

8
1.0 0.0 1.0 0.0 0.0 1.0 1.0 0.0

4
1.0 0.0 0.0 1.0

4
1.0 0.0 0.0 1.0

8
1.0 0.0 1.0 0.0 0.0 1.0 1.0 0.0

4
1.0 0.0 0.0 1.0

4
1.0 0.0 0.0 1.0

8
1.0 0.0 0.0 1.0 0.0 1.0 0.0 1.0

8
1.0 0.0 1.0 0.0 0.0 1.0 1.0 0.0

4
1.0 0.0 0.0 1.0

8
1.0 0.0 0.0 1.0 0.0 1.0 0.0 1.0

8
1.0 0.0 1.0 0.0 0.0 1.0 1.0 0.0

8
1.0 0.0 1.0 0.0 0.0 1.0 1.0 0.0

8
1.0 0.0 0.0 1.0 0.0 1.0 0.0 1.0

8
1.0 0.0 1.0 0.0 0.0 1.0 1.0 0.0

8
1.0 0.0 1.0 0.0 0.0 1.0 1.0 0.0

4
1.0 0.0 0.0 1.0

8
1.0 0.0 0.0 1.0 0.0 1.0 0.0 1.0

8
1.0 0.0 0.0 1.0 0.0 1.0 0.0 1.0

8
1.0 0.0 0.0 1.0 0.0 1.0 0.0 1.0

4
1.0 0.0 0.0 1.0

8
1.0 0.0 1.0 0.0 0.0 1.0 1.0 0.0

8
1.0 0.0 1.0 0.0 0.0 1.0 1.0 0.0

4
0.75 0.25 1.0 0.0

4
1.0 0.0 0.0 1.0

8
1.0 0.0 0.0 1.0 0.0 1.0 0.0 1.0

8
1.0 0.0 0.0 1.0 0.0 1.0 0.0 1.0

4
1.0 0.0 0.0 1.0

8
1.0 0.0 1.0 0.0 0.0 1.0 1.0 0.0

4
1.0 0.0 0.0 1.0

8
1.0 0.0 1.0 0.0 0.0 1.0 1.0 0.0

8
1.0 0.0 0.0 1.0 0.0 1.0 0.0 1.0

8
1.0 0.0 1.0 0.0 0.0 1.0 1.0 0.0

8
1.0 0.0 1.0 0.0 0.0 1.0 1.0 0.0

4
1.0 0.0 0.0 1.0

8
1.0 0.0 1.0 0.0 0.0 1.0 1.0 0.0

4
1.0 0.0 0.0 1.0

8
1.0 0.0 0.0 1.0 0.0 1.0 0.0 1.0

8
1.0 0.0 0.0 1.0 0.0 1.0 0.0 1.0

8
1.0 0.0 1.0 0.0 0.0 1.0 1.0 0.0

4
1.0 0.0 0.0 1.0

2
1.0 0.0

8
1.0 0.0 1.0 0.0 0.0 1.0 1.0 0.0

8
1.0 0.0 0.0 1.0 0.0 1.0 0.0 1.0

8
1.0 0.0 0.0 1.0 0.0 1.0 0.0 1.0

8
1.0 0.0 0.0 1.0 0.0 1.0 0.0 1.0

8
1.0 0.0 1.0 0.0 0.0 1.0 1.0 0.0

8
1.0 0.0 0.0 1.0 0.0 1.0 0.0 1.0

8
1.0 0.0 0.0 1.0 0.0 1.0 0.0 1.0

8
1.0 0.0 0.0 1.0 0.0 1.0 0.0 1.0

2
1.0 0.0

4
1.0 0.0 0.0 1.0

8
1.0 0.0 1.0 0.0 0.0 1.0 1.0 0.0

8
1.0 0.0 0.0 1.0 0.0 1.0 0.0 1.0

4
1.0 0.0 0.0 1.0

4
1.0 0.0 0.0 1.0

8
1.0 0.0 0.0 1.0 0.0 1.0 0.0 1.0

4
1.0 0.0 0.0 1.0

8
1.0 0.0 1.0 0.0 0.0 1.0 1.0 0.0

8
1.0 0.0 1.0 0.0 0.0 1.0 1.0 0.0

4
1.0 0.0 0.0 1.0

8
1.0 0.0 0.0 1.0 0.0 1.0 0.0 1.0

8
1.0 0.0 0.0 1.0 0.0 1.0 0.0 1.0

8
1.0 0.0 1.0 0.0 0.0 1.0 1.0 0.0

8
1.0 0.0 0.0 1.0 0.0 1.0 0.0 1.0

4
1.0 0.0 0.0 1.0

8
1.0 0.0 0.0 1.0 0.0 1.0 0.0 1.0

8
1.0 0.0 1.0 0.0 0.0 1.0 1.0 0.0

2
1.0 0.0

8
1.0 0.0 1.0 0.0 0.0 1.0 1.0 0.0

8
1.0 0.0 0.0 1.0 0.0 1.0 0.0 1.0

8
1.0 0.0 1.0 0.0 0.0 1.0 1.0 0.0

4
1.0 0.0 0.0 1.0

4
1.0 0.0 0.0 1.0

4
1.0 0.0 0.0 1.0

8
1.0 0.0 1.0 0.0 0.0 1.0 1.0 0.0

8
1.0 0.0 1.0 0.0 0.0 1.0 1.0 0.0

8
1.0 0.0 1.0 0.0 0.0 1.0 1.0 0.0

8
1.0 0.0 0.0 1.0 0.0 1.0 0.0 1.0

8
1.0 0.0 1.0 0.0 0.0 1.0 1.0 0.0

4
1.0 0.0 0.0 1.0

4
1.0 0.0 0.0 1.0

8
1.0 0.0 0.0 1.0 0.0 1.0 0.0 1.0

8
1.0 0.0 0.0 1.0 0.0 1.0 0.0 1.0

8
1.0 0.0 1.0 0.0 0.0 1.0 1.0 0.0

8
1.0 0.0 0.0 1.0 0.0 1.0 0.0 1.0

8
1.0 0.0 0.0 1.0 0.0 1.0 0.0 1.0

8
1.0 0.0 0.0 1.0 0.0 1.0 0.0 1.0

8
1.0 0.0 0.0 1.0 0.0 1.0 0.0 1.0

8
1.0 0.0 1.0 0.0 0.0 1.0 1.0 0.0

8
1.0 0.0 0.0 1.0 0.0 1.0 0.0 1.0

8
1.0 0.0 0.0 1.0 0.0 1.0 0.0 1.0

8
1.0 0.0 1.0 0.0 0.0 1.0 1.0 0.0

8
1.0 0.0 0.0 1.0 0.0 1.0 0.0 1.0

8
1.0 0.0 0.0 1.0 0.0 1.0 0.0 1.0

8
1.0 0.0 1.0 0.0 0.0 1.0 1.0 0.0

4
0.0 1.0 1.0 0.0

4
1.0 0.0 0.0 1.0

8
1.0 0.0 0.0 1.0 0.0 1.0 0.0 1.0

8
1.0 0.0 1.0 0.0 0.0 1.0 1.0 0.0

8
1.0 0.0 0.0 1.0 0.0 1.0 0.0 1.0

8
1.0 0.0 0.0 1.0 0.0 1.0 0.0 1.0

8
1.0 0.0 0.0 1.0 0.0 1.0 0.0 1.0

4
1.0 0.0 0.0 1.0

4
1.0 0.0 0.0 1.0

8
1.0 0.0 1.0 0.0 0.0 1.0 1.0 0.0

8
1.0 0.0 0.0 1.0 0.0 1.0 0.0 1.0

4
1.0 0.0 0.0 1.0

4
1.0 0.0 0.0 1.0

4
1.0 0.0 0.0 1.0

8
1.0 0.0 1.0 0.0 0.0 1.0 1.0 0.0

4
1.0 0.0 0.0 1.0

8
1.0 0.0 0.0 1.0 0.0 1.0 0.0 1.0

4
1.0 0.0 0.0 1.0

8
1.0 0.0 0.0 1.0 0.0 1.0 0.0 1.0

8
1.0 0.0 1.0 0.0 0.0 1.0 1.0 0.0

8
1.0 0.0 0.0 1.0 0.0 1.0 0.0 1.0

8
1.0 0.0 1.0 0.0 0.0 1.0 1.0 0.0

4
1.0 0.0 0.0 1.0

8
1.0 0.0 1.0 0.0 0.0 1.0 1.0 0.0

8
1.0 0.0 1.0 0.0 0.0 1.0 1.0 0.0

8
1.0 0.0 0.0 1.0 0.0 1.0 0.0 1.0

8
1.0 0.0 1.0 0.0 0.0 1.0 1.0 0.0

8
1.0 0.0 0.0 1.0 0.0 1.0 0.0 1.0

4
1.0 0.0 0.0 1.0

8
1.0 0.0 1.0 0.0 0.0 1.0 1.0 0.0

8
1.0 0.0 0.0 1.0 0.0 1.0 0.0 1.0

8
1.0 0.0 1.0 0.0 0.0 1.0 1.0 0.0

4
1.0 0.0 0.0 1.0

8
1.0 0.0 1.0 0.0 0.0 1.0 1.0 0.0

4
1.0 0.0 0.0 1.0

8
1.0 0.0 0.0 1.0 0.0 1.0 0.0 1.0

8
1.0 0.0 0.0 1.0 0.0 1.0 0.0 1.0

8
1.0 0.0 1.0 0.0 0.0 1.0 1.0 0.0

8
1.0 0.0 0.0 1.0 0.0 1.0 0.0 1.0

8
1.0 0.0 1.0 0.0 0.0 1.0 1.0 0.0

8
1.0 0.0 1.0 0.0 0.0 1.0 1.0 0.0

8
1.0 0.0 0.0 1.0 0.0 1.0 0.0 1.0

4
1.0 0.0 0.0 1.0

4
1.0 0.0 0.0 1.0

8
1.0 0.0 1.0 0.0 0.0 1.0 1.0 0.0

8
1.0 0.0 0.0 1.0 0.0 1.0 0.0 1.0

8
1.0 0.0 1.0 0.0 0.0 1.0 1.0 0.0

4
1.0 0.0 0.0 1.0

8
1.0 0.0 1.0 0.0 0.0 1.0 1.0 0.0

8
1.0 0.0 1.0 0.0 0.0 1.0 1.0 0.0

2
1.0 0.0

4
1.0 0.0 0.0 1.0

4
1.0 0.0 0.0 1.0

4
1.0 0.0 0.0 1.0

4
1.0 0.0 0.0 1.0

8
1.0 0.0 1.0 0.0 0.0 1.0 1.0 0.0

4
1.0 0.0 0.0 1.0

4
1.0 0.0 0.0 1.0

4
1.0 0.0 0.0 1.0

8
1.0 0.0 0.0 1.0 0.0 1.0 0.0 1.0

8
1.0 0.0 0.0 1.0 0.0 1.0 0.0 1.0

8
1.0 0.0 0.0 1.0 0.0 1.0 0.0 1.0

8
1.0 0.0 1.0 0.0 0.0 1.0 1.0 0.0

8
1.0 0.0 1.0 0.0 0.0 1.0 1.0 0.0

8
1.0 0.0 1.0 0.0 0.0 1.0 1.0 0.0

8
1.0 0.0 1.0 0.0 0.0 1.0 1.0 0.0

8
1.0 0.0 1.0 0.0 0.0 1.0 1.0 0.0

8
1.0 0.0 0.0 1.0 0.0 1.0 0.0 1.0

8
1.0 0.0 0.0 1.0 0.0 1.0 0.0 1.0

8
1.0 0.0 1.0 0.0 0.0 1.0 1.0 0.0

8
1.0 0.0 0.0 1.0 0.0 1.0 0.0 1.0

8
1.0 0.0 1.0 0.0 0.0 1.0 1.0 0.0

8
1.0 0.0 1.0 0.0 0.0 1.0 1.0 0.0

8
1.0 0.0 0.0 1.0 0.0 1.0 0.0 1.0

4
1.0 0.0 0.0 1.0

2
1.0 0.0

4
1.0 0.0 0.0 1.0

8
1.0 0.0 0.0 1.0 0.0 1.0 0.0 1.0

8
1.0 0.0 0.0 1.0 0.0 1.0 0.0 1.0

4
1.0 0.0 0.0 1.0

4
1.0 0.0 0.0 1.0

8
1.0 0.0 0.0 1.0 0.0 1.0 0.0 1.0

8
1.0 0.0 1.0 0.0 0.0 1.0 1.0 0.0

8
1.0 0.0 0.0 1.0 0.0 1.0 0.0 1.0

8
1.0 0.0 0.0 1.0 0.0 1.0 0.0 1.0

8
1.0 0.0 0.0 1.0 0.0 1.0 0.0 1.0

8
1.0 0.0 1.0 0.0 0.0 1.0 1.0 0.0

8
1.0 0.0 0.0 1.0 0.0 1.0 0.0 1.0

8
1.0 0.0 1.0 0.0 0.0 1.0 1.0 0.0

8
1.0 0.0 0.0 1.0 0.0 1.0 0.0 1.0

8
1.0 0.0 1.0 0.0 0.0 1.0 1.0 0.0

8
1.0 0.0 1.0 0.0 0.0 1.0 1.0 0.0

8
1.0 0.0 1.0 0.0 0.0 1.0 1.0 0.0

4
1.0 0.0 0.0 1.0

8
1.0 0.0 0.0 1.0 0.0 1.0 0.0 1.0

2
1.0 0.0

8
1.0 0.0 0.0 1.0 0.0 1.0 0.0 1.0

8
1.0 0.0 1.0 0.0 0.0 1.0 1.0 0.0

8
1.0 0.0 0.0 1.0 0.0 1.0 0.0 1.0

8
1.0 0.0 1.0 0.0 0.0 1.0 1.0 0.0

8
1.0 0.0 0.0 1.0 0.0 1.0 0.0 1.0

8
1.0 0.0 0.0 1.0 0.0 1.0 0.0 1.0

8
1.0 0.0 1.0 0.0 0.0 1.0 1.0 0.0

8
1.0 0.0 1.0 0.0 0.0 1.0 1.0 0.0

8
1.0 0.0 0.0 1.0 0.0 1.0 0.0 1.0

8
1.0 0.0 1.0 0.0 0.0 1.0 1.0 0.0

8
1.0 0.0 1.0 0.0 0.0 1.0 1.0 0.0

8
1.0 0.0 0.0 1.0 0.0 1.0 0.0 1.0

4
1.0 0.0 0.0 1.0

8
1.0 0.0 0.0 1.0 0.0 1.0 0.0 1.0

8
1.0 0.0 0.0 1.0 0.0 1.0 0.0 1.0

8
1.0 0.0 0.0 1.0 0.0 1.0 0.0 1.0

4
1.0 0.0 0.0 1.0

8
1.0 0.0 1.0 0.0 0.0 1.0 1.0 0.0

8
1.0 0.0 0.0 1.0 0.0 1.0 0.0 1.0

8
1.0 0.0 0.0 1.0 0.0 1.0 0.0 1.0

8
1.0 0.0 1.0 0.0 0.0 1.0 1.0 0.0

8
1.0 0.0 1.0 0.0 0.0 1.0 1.0 0.0

4
1.0 0.0 0.0 1.0

2
1.0 0.0

4
1.0 0.0 0.0 1.0

8
1.0 0.0 1.0 0.0 0.0 1.0 1.0 0.0

4
1.0 0.0 0.0 1.0

4
1.0 0.0 0.0 1.0

4
1.0 0.0 0.0 1.0

8
1.0 0.0 1.0 0.0 0.0 1.0 1.0 0.0

8
1.0 0.0 1.0 0.0 0.0 1.0 1.0 0.0

8
1.0 0.0 1.0 0.0 0.0 1.0 1.0 0.0

8
1.0 0.0 0.0 1.0 0.0 1.0 0.0 1.0

4
1.0 0.0 0.0 1.0

4
1.0 0.0 0.0 1.0

8
1.0 0.0 0.0 1.0 0.0 1.0 0.0 1.0

8
1.0 0.0 1.0 0.0 0.0 1.0 1.0 0.0

8
1.0 0.0 1.0 0.0 0.0 1.0 1.0 0.0

8
1.0 0.0 1.0 0.0 0.0 1.0 1.0 0.0

4
1.0 0.0 0.0 1.0

8
1.0 0.0 0.0 1.0 0.0 1.0 0.0 1.0

8
1.0 0.0 0.0 1.0 0.0 1.0 0.0 1.0

8
1.0 0.0 1.0 0.0 0.0 1.0 1.0 0.0

8
1.0 0.0 0.0 1.0 0.0 1.0 0.0 1.0

8
1.0 0.0 0.0 1.0 0.0 1.0 0.0 1.0

8
1.0 0.0 1.0 0.0 0.0 1.0 1.0 0.0

8
1.0 0.0 1.0 0.0 0.0 1.0 1.0 0.0

4
1.0 0.0 0.0 1.0

4
1.0 0.0 0.0 1.0

4
1.0 0.0 0.0 1.0

8
1.0 0.0 1.0 0.0 0.0 1.0 1.0 0.0

8
1.0 0.0 0.0 1.0 0.0 1.0 0.0 1.0

8
1.0 0.0 1.0 0.0 0.0 1.0 1.0 0.0

4
1.0 0.0 0.0 1.0

8
1.0 0.0 1.0 0.0 0.0 1.0 1.0 0.0

8
1.0 0.0 0.0 1.0 0.0 1.0 0.0 1.0

8
1.0 0.0 1.0 0.0 0.0 1.0 1.0 0.0

8
1.0 0.0 1.0 0.0 0.0 1.0 1.0 0.0

8
1.0 0.0 0.0 1.0 0.0 1.0 0.0 1.0

8
1.0 0.0 1.0 0.0 0.0 1.0 1.0 0.0

8
1.0 0.0 0.0 1.0 0.0 1.0 0.0 1.0

8
1.0 0.0 0.0 1.0 0.0 1.0 0.0 1.0

8
1.0 0.0 1.0 0.0 0.0 1.0 1.0 0.0

8
1.0 0.0 0.0 1.0 0.0 1.0 0.0 1.0

8
1.0 0.0 1.0 0.0 0.0 1.0 1.0 0.0

2
1.0 0.0

8
1.0 0.0 0.0 1.0 0.0 1.0 0.0 1.0

8
1.0 0.0 1.0 0.0 0.0 1.0 1.0 0.0

8
1.0 0.0 0.0 1.0 0.0 1.0 0.0 1.0

4
1.0 0.0 0.0 1.0

8
1.0 0.0 1.0 0.0 0.0 1.0 1.0 0.0

8
1.0 0.0 0.0 1.0 0.0 1.0 0.0 1.0

4
1.0 0.0 0.0 1.0

4
1.0 0.0 0.0 1.0

4
1.0 0.0 0.0 1.0

4
1.0 0.0 0.0 1.0

8
1.0 0.0 1.0 0.0 0.0 1.0 1.0 0.0

8
1.0 0.0 0.0 1.0 0.0 1.0 0.0 1.0

4
1.0 0.0 0.0 1.0

8
1.0 0.0 1.0 0.0 0.0 1.0 1.0 0.0

8
1.0 0.0 1.0 0.0 0.0 1.0 1.0 0.0

8
1.0 0.0 0.0 1.0 0.0 1.0 0.0 1.0

4
1.0 0.0 0.0 1.0

4
1.0 0.0 0.0 1.0

8
1.0 0.0 0.0 1.0 0.0 1.0 0.0 1.0

8
1.0 0.0 1.0 0.0 0.0 1.0 1.0 0.0

8
1.0 0.0 0.0 1.0 0.0 1.0 0.0 1.0

8
1.0 0.0 1.0 0.0 0.0 1.0 1.0 0.0

4
1.0 0.0 0.0 1.0

4
1.0 0.0 0.0 1.0

8
1.0 0.0 1.0 0.0 0.0 1.0 1.0 0.0

4
0.6666666666666667 0.3333333333333333 1.0 0.0

8
1.0 0.0 1.0 0.0 0.0 1.0 1.0 0.0

8
1.0 0.0 1.0 0.0 0.0 1.0 1.0 0.0

8
1.0 0.0 0.0 1.0 0.0 1.0 0.0 1.0

8
1.0 0.0 0.0 1.0 0.0 1.0 0.0 1.0

4
1.0 0.0 0.0 1.0

8
1.0 0.0 1.0 0.0 0.0 1.0 1.0 0.0

8
1.0 0.0 1.0 0.0 0.0 1.0 1.0 0.0

8
1.0 0.0 0.0 1.0 0.0 1.0 0.0 1.0

8
1.0 0.0 1.0 0.0 0.0 1.0 1.0 0.0

8
1.0 0.0 1.0 0.0 0.0 1.0 1.0 0.0

4
1.0 0.0 0.0 1.0

4
1.0 0.0 0.0 1.0

8
1.0 0.0 0.0 1.0 0.0 1.0 0.0 1.0

4
1.0 0.0 0.0 1.0

8
1.0 0.0 1.0 0.0 0.0 1.0 1.0 0.0

8
1.0 0.0 1.0 0.0 0.0 1.0 1.0 0.0

4
1.0 0.0 0.0 1.0

8
1.0 0.0 0.0 1.0 0.0 1.0 0.0 1.0

8
1.0 0.0 1.0 0.0 0.0 1.0 1.0 0.0

8
1.0 0.0 1.0 0.0 0.0 1.0 1.0 0.0

8
1.0 0.0 0.0 1.0 0.0 1.0 0.0 1.0

8
1.0 0.0 1.0 0.0 0.0 1.0 1.0 0.0

8
1.0 0.0 0.0 1.0 0.0 1.0 0.0 1.0

4
1.0 0.0 0.0 1.0

2
1.0 0.0

8
1.0 0.0 0.0 1.0 0.0 1.0 0.0 1.0

8
1.0 0.0 0.0 1.0 0.0 1.0 0.0 1.0

8
1.0 0.0 1.0 0.0 0.0 1.0 1.0 0.0

4
1.0 0.0 0.0 1.0

8
1.0 0.0 1.0 0.0 0.0 1.0 1.0 0.0

8
1.0 0.0 1.0 0.0 0.0 1.0 1.0 0.0

2
1.0 0.0

8
1.0 0.0 0.0 1.0 0.0 1.0 0.0 1.0

4
1.0 0.0 0.0 1.0

8
1.0 0.0 1.0 0.0 0.0 1.0 1.0 0.0

8
1.0 0.0 1.0 0.0 0.0 1.0 1.0 0.0

8
1.0 0.0 1.0 0.0 0.0 1.0 1.0 0.0

8
1.0 0.0 1.0 0.0 0.0 1.0 1.0 0.0

4
1.0 0.0 0.0 1.0

4
1.0 0.0 0.0 1.0

8
1.0 0.0 0.0 1.0 0.0 1.0 0.0 1.0

8
1.0 0.0 1.0 0.0 0.0 1.0 1.0 0.0

8
1.0 0.0 0.0 1.0 0.0 1.0 0.0 1.0

8
1.0 0.0 0.0 1.0 0.0 1.0 0.0 1.0

8
1.0 0.0 0.0 1.0 0.0 1.0 0.0 1.0

8
1.0 0.0 0.0 1.0 0.0 1.0 0.0 1.0

8
1.0 0.0 1.0 0.0 0.0 1.0 1.0 0.0

8
1.0 0.0 0.0 1.0 0.0 1.0 0.0 1.0

8
1.0 0.0 1.0 0.0 0.0 1.0 1.0 0.0

8
1.0 0.0 0.0 1.0 0.0 1.0 0.0 1.0

8
1.0 0.0 0.0 1.0 0.0 1.0 0.0 1.0

4
1.0 0.0 0.0 1.0

8
1.0 0.0 1.0 0.0 0.0 1.0 1.0 0.0

4
1.0 0.0 0.0 1.0

8
1.0 0.0 1.0 0.0 0.0 1.0 1.0 0.0

8
1.0 0.0 0.0 1.0 0.0 1.0 0.0 1.0

8
1.0 0.0 0.0 1.0 0.0 1.0 0.0 1.0

4
1.0 0.0 0.0 1.0

8
1.0 0.0 0.0 1.0 0.0 1.0 0.0 1.0

8
1.0 0.0 0.0 1.0 0.0 1.0 0.0 1.0

8
1.0 0.0 1.0 0.0 0.0 1.0 1.0 0.0

8
1.0 0.0 1.0 0.0 0.0 1.0 1.0 0.0

8
1.0 0.0 1.0 0.0 0.0 1.0 1.0 0.0

8
1.0 0.0 0.0 1.0 0.0 1.0 0.0 1.0

8
1.0 0.0 1.0 0.0 0.0 1.0 1.0 0.0

8
1.0 0.0 1.0 0.0 0.0 1.0 1.0 0.0

8
1.0 0.0 0.0 1.0 0.0 1.0 0.0 1.0

8
1.0 0.0 0.0 1.0 0.0 1.0 0.0 1.0

8
1.0 0.0 0.0 1.0 0.0 1.0 0.0 1.0

8
1.0 0.0 0.0 1.0 0.0 1.0 0.0 1.0

8
1.0 0.0 0.0 1.0 0.0 1.0 0.0 1.0

8
1.0 0.0 1.0 0.0 0.0 1.0 1.0 0.0

8
1.0 0.0 1.0 0.0 0.0 1.0 1.0 0.0

8
1.0 0.0 0.0 1.0 0.0 1.0 0.0 1.0

2
0.0 1.0

2
1.0 0.0

8
1.0 0.0 1.0 0.0 0.0 1.0 1.0 0.0

8
1.0 0.0 0.0 1.0 0.0 1.0 0.0 1.0

4
1.0 0.0 0.0 1.0

8
1.0 0.0 0.0 1.0 0.0 1.0 0.0 1.0

8
1.0 0.0 0.0 1.0 0.0 1.0 0.0 1.0

8
1.0 0.0 1.0 0.0 0.0 1.0 1.0 0.0

4
1.0 0.0 0.0 1.0

8
1.0 0.0 1.0 0.0 0.0 1.0 1.0 0.0

8
1.0 0.0 1.0 0.0 0.0 1.0 1.0 0.0

8
1.0 0.0 1.0 0.0 0.0 1.0 1.0 0.0

8
1.0 0.0 0.0 1.0 0.0 1.0 0.0 1.0

8
1.0 0.0 1.0 0.0 0.0 1.0 1.0 0.0

8
1.0 0.0 1.0 0.0 0.0 1.0 1.0 0.0